NAME : XML100_1334_07
DIMENSION : 101
NB_CLUSTERS : 4
CLUSTERING_ALG : KMeans
CLUSTERING_PARAMS : k(3)
CLUSTERS
1 0
2 1 4 6 8 16 17 18 19 21 22 27 28 29 31 32 34 35 36 38 39 40 42 43 44 45 50 53 54 55 56 57 63 68 70 72 74 77 80 84 86 88 90 92 95 97 99
3 2 3 9 10 11 12 14 15 20 23 25 30 37 41 47 51 58 60 61 62 65 66 71 75 76 78 79 83 85 87 89 91 94 98 100
4 5 7 13 24 26 33 46 48 49 52 59 64 67 69 73 81 82 93 96
EOF